sat
(:max-memory         18.25
 :memory             18.07
 :nlsat-propagations 9
 :nlsat-stages       4
 :num-allocs         8159
 :rlimit-count       8742
 :time               0.00
 :total-time         0.01)
